138313
0,86,43,65,58,9,26,27,75,88,92,11,91,22,79,56,82,33,8,25,49,13,46,60,102,3,14,74,34,62,31,6,83,52,50,99,98,67,18,41,105,7,96,54,28,29,4,51,64,30,97,12,87,68,80,5,39,55,19,15,63,89,16,20,76,45,85,21,61,24,44,71,81,1,32,38,48,17,36,72,47,84,35,70,53,94,66,40,10,103,37,104,100,69,93,2,77,95,59,90,78,42,101,73,23,57,0